data/processed_heuristic-threshold/instances/1/9/ds_728_courier_3156/pairwise.tsp
NAME: ds_728_courier_3156
TYPE: TSP
COMMENT: nil
DIMENSION: 10
EDGE_WEIGHT_TYPE: EXPLICIT
EDGE_WEIGHT_FORMAT: FULL_MATRIX
EDGE_WEIGHT_SECTION
9999 2915 3380 3079 3259 3558 3231 3291 3998 3182 
2915 9999 1030 954 596 1140 1553 440 1628 1202 
3380 1030 9999 308 467 178 698 738 662 364 
3079 954 308 9999 529 484 604 795 931 248 
3259 596 467 529 9999 549 1107 277 1033 741 
3558 1140 178 484 549 9999 774 795 504 491 
3231 1553 698 604 1107 774 9999 1383 922 367 
3291 440 738 795 277 795 1383 9999 1247 1016 
3998 1628 662 931 1033 504 922 1247 9999 822 
3182 1202 364 248 741 491 367 1016 822 9999 
