data/processed_heuristic-threshold/instances/1/9/ds_728_courier_3156/pairwise.sol
10
0 3 9 6 8 5 2 4 7 1 
